p cnf 151 381
a 2 46 14 12 10 9 27 25 37 35 92 98 106 114 122 130 138 1 8 24 34 0
d 16 46 1 0
d 82 37 24 0
d 71 27 8 0
d 99 92 34 0
d 3 2 0
d 4 2 0
d 5 2 0
d 6 1 2 0
d 7 1 2 0
d 11 10 0
d 13 12 0
d 15 14 0
d 17 14 46 1 0
d 18 12 14 46 1 0
d 19 10 12 14 46 1 0
d 20 9 10 12 14 46 1 0
d 21 8 9 10 12 14 46 1 0
d 22 8 9 10 12 14 46 1 0
d 23 1 2 8 9 10 12 14 46 0
d 26 25 0
d 28 27 0
d 29 27 9 10 12 14 46 1 0
d 30 25 27 9 10 12 14 46 1 0
d 31 24 25 27 9 10 12 14 46 1 0
d 32 24 25 27 9 10 12 14 46 1 0
d 33 1 2 8 9 10 12 14 46 24 25 27 0
d 36 35 0
d 38 37 0
d 39 37 25 27 9 10 12 14 46 1 0
d 40 35 37 25 27 9 10 12 14 46 1 0
d 41 34 35 37 25 27 9 10 12 14 46 1 0
d 42 34 35 37 25 27 9 10 12 14 46 1 0
d 43 1 2 8 9 10 12 14 46 24 25 27 34 35 37 0
d 44 2 0
d 45 2 0
d 47 46 2 0
d 48 46 2 0
d 49 2 46 0
d 50 14 46 1 0
d 51 46 0
d 52 46 2 0
d 53 14 46 2 0
d 54 14 46 1 2 0
d 55 2 46 14 1 0
d 56 12 14 46 1 0
d 57 14 46 2 0
d 58 12 14 46 2 0
d 59 12 14 46 1 2 0
d 60 2 46 14 1 12 0
d 61 10 12 14 46 1 0
d 62 12 14 46 2 0
d 63 10 12 14 46 2 0
d 64 10 12 14 46 1 2 0
d 65 2 46 14 1 12 10 0
d 66 9 10 12 14 46 1 0
d 67 10 12 14 46 2 0
d 68 9 10 12 14 46 2 0
d 69 9 10 12 14 46 1 2 0
d 70 2 46 14 1 12 10 9 0
d 72 9 0
d 73 9 10 12 14 46 2 0
d 74 27 9 10 12 14 46 2 0
d 75 27 8 9 10 12 14 46 2 0
d 76 2 46 14 1 12 10 9 27 8 0
d 77 25 27 9 10 12 14 46 1 0
d 78 27 9 10 12 14 46 2 0
d 79 25 27 9 10 12 14 46 2 0
d 80 25 27 9 10 12 14 46 1 2 0
d 81 2 46 14 1 12 10 9 27 8 25 0
d 83 25 27 9 10 12 14 46 2 0
d 84 37 25 27 9 10 12 14 46 2 0
d 85 37 24 25 27 9 10 12 14 46 2 0
d 86 2 46 14 1 12 10 9 27 8 25 37 24 0
d 87 35 37 25 27 9 10 12 14 46 1 0
d 88 37 25 27 9 10 12 14 46 2 0
d 89 35 37 25 27 9 10 12 14 46 2 0
d 90 35 37 25 27 9 10 12 14 46 1 2 0
d 91 2 46 14 1 12 10 9 27 8 25 37 24 35 0
d 93 92 35 37 25 27 9 10 12 14 46 1 0
d 94 35 37 25 27 9 10 12 14 46 2 0
d 95 92 35 37 25 27 9 10 12 14 46 2 0
d 96 92 35 37 25 27 9 10 12 14 46 1 2 0
d 97 2 46 14 1 12 10 9 27 8 25 37 24 35 92 0
d 100 98 92 34 0
d 101 92 0
d 102 92 35 37 25 27 9 10 12 14 46 2 0
d 103 98 92 35 37 25 27 9 10 12 14 46 2 0
d 104 98 92 34 35 37 25 27 9 10 12 14 46 2 0
d 105 2 46 14 1 12 10 9 27 8 25 37 24 35 92 98 34 0
d 107 98 0
d 108 98 92 34 0
d 109 106 98 92 34 0
d 110 98 92 35 37 25 27 9 10 12 14 46 2 0
d 111 106 98 92 35 37 25 27 9 10 12 14 46 2 0
d 112 106 98 92 34 35 37 25 27 9 10 12 14 46 2 0
d 113 2 46 14 1 12 10 9 27 8 25 37 24 35 92 98 34 106 0
d 115 106 0
d 116 106 98 92 34 0
d 117 114 106 98 92 34 0
d 118 106 98 92 35 37 25 27 9 10 12 14 46 2 0
d 119 114 106 98 92 35 37 25 27 9 10 12 14 46 2 0
d 120 114 106 98 92 34 35 37 25 27 9 10 12 14 46 2 0
d 121 2 46 14 1 12 10 9 27 8 25 37 24 35 92 98 34 106 114 0
d 123 114 0
d 124 114 106 98 92 34 0
d 125 122 114 106 98 92 34 0
d 126 114 106 98 92 35 37 25 27 9 10 12 14 46 2 0
d 127 122 114 106 98 92 35 37 25 27 9 10 12 14 46 2 0
d 128 122 114 106 98 92 34 35 37 25 27 9 10 12 14 46 2 0
d 129 2 46 14 1 12 10 9 27 8 25 37 24 35 92 98 34 106 114 122 0
d 131 122 0
d 132 122 114 106 98 92 34 0
d 133 130 122 114 106 98 92 34 0
d 134 122 114 106 98 92 35 37 25 27 9 10 12 14 46 2 0
d 135 130 122 114 106 98 92 35 37 25 27 9 10 12 14 46 2 0
d 136 130 122 114 106 98 92 34 35 37 25 27 9 10 12 14 46 2 0
d 137 2 46 14 1 12 10 9 27 8 25 37 24 35 92 98 34 106 114 122 130 0
d 139 130 0
d 140 130 122 114 106 98 92 34 0
d 141 138 130 122 114 106 98 92 34 0
d 142 130 122 114 106 98 92 35 37 25 27 9 10 12 14 46 2 0
d 143 138 130 122 114 106 98 92 35 37 25 27 9 10 12 14 46 2 0
d 144 138 130 122 114 106 98 92 34 35 37 25 27 9 10 12 14 46 2 0
d 145 2 46 14 1 12 10 9 27 8 25 37 24 35 92 98 34 106 114 122 130 138 0
d 146 138 0
d 147 138 130 122 114 106 98 92 34 0
d 148 138 130 122 114 106 98 92 35 37 25 27 9 10 12 14 46 2 0
d 149 138 130 122 114 106 98 92 34 35 37 25 27 9 10 12 14 46 2 0
d 150 2 46 14 1 12 10 9 27 8 25 37 24 35 92 98 34 106 114 122 130 138 0
d 151 1 2 8 9 10 12 14 46 24 25 27 34 35 37 92 98 106 114 122 130 138 0
3 2 0
-3 -2 0
4 -2 0
4 -3 0
-4 2 3 0
-5 3 0
-5 4 0
5 -3 -4 0
6 -1 -5 0
6 1 5 0
-6 -1 5 0
-6 1 -5 0
7 6 0
-7 -6 0
11 10 0
-11 -10 0
13 12 0
-13 -12 0
15 14 0
-15 -14 0
-17 15 0
-17 16 0
17 -15 -16 0
-18 13 0
-18 17 0
18 -13 -17 0
-19 11 0
-19 18 0
19 -11 -18 0
20 -9 -19 0
20 9 19 0
-20 -9 19 0
-20 9 -19 0
21 -8 -20 0
21 8 20 0
-21 -8 20 0
-21 8 -20 0
22 21 0
-22 -21 0
23 -7 0
23 -22 0
-23 7 22 0
26 25 0
-26 -25 0
28 27 0
-28 -27 0
-29 28 0
-29 20 0
29 -28 -20 0
-30 26 0
-30 29 0
30 -26 -29 0
31 -24 -30 0
31 24 30 0
-31 -24 30 0
-31 24 -30 0
32 31 0
-32 -31 0
33 -23 0
33 -32 0
-33 23 32 0
36 35 0
-36 -35 0
38 37 0
-38 -37 0
-39 38 0
-39 30 0
39 -38 -30 0
-40 36 0
-40 39 0
40 -36 -39 0
41 -34 -40 0
41 34 40 0
-41 -34 40 0
-41 34 -40 0
42 41 0
-42 -41 0
43 -33 0
43 -42 0
-43 33 42 0
-44 2 0
-44 4 0
44 -2 -4 0
45 -44 -44 0
45 44 44 0
-45 -44 44 0
-45 44 -44 0
-47 46 0
-47 5 0
47 -46 -5 0
48 -47 -47 0
48 47 47 0
-48 -47 47 0
-48 47 -47 0
-49 45 0
-49 48 0
49 -45 -48 0
-50 14 0
-50 16 0
50 -14 -16 0
51 46 0
-51 -46 0
-52 51 0
-52 5 0
52 -51 -5 0
-53 14 0
-53 52 0
53 -14 -52 0
54 -50 -53 0
54 50 53 0
-54 -50 53 0
-54 50 -53 0
-55 49 0
-55 54 0
55 -49 -54 0
-56 12 0
-56 17 0
56 -12 -17 0
-57 15 0
-57 52 0
57 -15 -52 0
-58 12 0
-58 57 0
58 -12 -57 0
59 -56 -58 0
59 56 58 0
-59 -56 58 0
-59 56 -58 0
-60 55 0
-60 59 0
60 -55 -59 0
-61 10 0
-61 18 0
61 -10 -18 0
-62 13 0
-62 57 0
62 -13 -57 0
-63 10 0
-63 62 0
63 -10 -62 0
64 -61 -63 0
64 61 63 0
-64 -61 63 0
-64 61 -63 0
-65 60 0
-65 64 0
65 -60 -64 0
-66 9 0
-66 19 0
66 -9 -19 0
-67 11 0
-67 62 0
67 -11 -62 0
-68 9 0
-68 67 0
68 -9 -67 0
69 -66 -68 0
69 66 68 0
-69 -66 68 0
-69 66 -68 0
-70 65 0
-70 69 0
70 -65 -69 0
72 9 0
-72 -9 0
-73 72 0
-73 67 0
73 -72 -67 0
-74 27 0
-74 73 0
74 -27 -73 0
75 -71 -74 0
75 71 74 0
-75 -71 74 0
-75 71 -74 0
-76 70 0
-76 75 0
76 -70 -75 0
-77 25 0
-77 29 0
77 -25 -29 0
-78 28 0
-78 73 0
78 -28 -73 0
-79 25 0
-79 78 0
79 -25 -78 0
80 -77 -79 0
80 77 79 0
-80 -77 79 0
-80 77 -79 0
-81 76 0
-81 80 0
81 -76 -80 0
-83 26 0
-83 78 0
83 -26 -78 0
-84 37 0
-84 83 0
84 -37 -83 0
85 -82 -84 0
85 82 84 0
-85 -82 84 0
-85 82 -84 0
-86 81 0
-86 85 0
86 -81 -85 0
-87 35 0
-87 39 0
87 -35 -39 0
-88 38 0
-88 83 0
88 -38 -83 0
-89 35 0
-89 88 0
89 -35 -88 0
90 -87 -89 0
90 87 89 0
-90 -87 89 0
-90 87 -89 0
-91 86 0
-91 90 0
91 -86 -90 0
-93 92 0
-93 40 0
93 -92 -40 0
-94 36 0
-94 88 0
94 -36 -88 0
-95 92 0
-95 94 0
95 -92 -94 0
96 -93 -95 0
96 93 95 0
-96 -93 95 0
-96 93 -95 0
-97 91 0
-97 96 0
97 -91 -96 0
-100 98 0
-100 99 0
100 -98 -99 0
101 92 0
-101 -92 0
-102 101 0
-102 94 0
102 -101 -94 0
-103 98 0
-103 102 0
103 -98 -102 0
104 -100 -103 0
104 100 103 0
-104 -100 103 0
-104 100 -103 0
-105 97 0
-105 104 0
105 -97 -104 0
107 98 0
-107 -98 0
-108 107 0
-108 99 0
108 -107 -99 0
-109 106 0
-109 108 0
109 -106 -108 0
-110 107 0
-110 102 0
110 -107 -102 0
-111 106 0
-111 110 0
111 -106 -110 0
112 -109 -111 0
112 109 111 0
-112 -109 111 0
-112 109 -111 0
-113 105 0
-113 112 0
113 -105 -112 0
115 106 0
-115 -106 0
-116 115 0
-116 108 0
116 -115 -108 0
-117 114 0
-117 116 0
117 -114 -116 0
-118 115 0
-118 110 0
118 -115 -110 0
-119 114 0
-119 118 0
119 -114 -118 0
120 -117 -119 0
120 117 119 0
-120 -117 119 0
-120 117 -119 0
-121 113 0
-121 120 0
121 -113 -120 0
123 114 0
-123 -114 0
-124 123 0
-124 116 0
124 -123 -116 0
-125 122 0
-125 124 0
125 -122 -124 0
-126 123 0
-126 118 0
126 -123 -118 0
-127 122 0
-127 126 0
127 -122 -126 0
128 -125 -127 0
128 125 127 0
-128 -125 127 0
-128 125 -127 0
-129 121 0
-129 128 0
129 -121 -128 0
131 122 0
-131 -122 0
-132 131 0
-132 124 0
132 -131 -124 0
-133 130 0
-133 132 0
133 -130 -132 0
-134 131 0
-134 126 0
134 -131 -126 0
-135 130 0
-135 134 0
135 -130 -134 0
136 -133 -135 0
136 133 135 0
-136 -133 135 0
-136 133 -135 0
-137 129 0
-137 136 0
137 -129 -136 0
139 130 0
-139 -130 0
-140 139 0
-140 132 0
140 -139 -132 0
-141 138 0
-141 140 0
141 -138 -140 0
-142 139 0
-142 134 0
142 -139 -134 0
-143 138 0
-143 142 0
143 -138 -142 0
144 -141 -143 0
144 141 143 0
-144 -141 143 0
-144 141 -143 0
-145 137 0
-145 144 0
145 -137 -144 0
146 138 0
-146 -138 0
-147 146 0
-147 140 0
147 -146 -140 0
-148 146 0
-148 142 0
148 -146 -142 0
149 -147 -148 0
149 147 148 0
-149 -147 148 0
-149 147 -148 0
-150 145 0
-150 149 0
150 -145 -149 0
151 -43 0
151 -150 0
-151 43 150 0
151 0
